NAME : traveling-santa-2018-prime-paths.28581.tour
COMMENT : Length = 28581
COMMENT : Found by LKH [Keld Helsgaun] Sun Jun 12 20:00:11 2022
TYPE : TOUR
DIMENSION : 100
TOUR_SECTION
1
57
67
51
68
37
14
91
50
83
63
71
53
35
46
95
75
72
16
54
33
20
64
94
4
100
56
24
66
31
2
45
93
13
40
90
85
3
36
38
61
73
23
96
10
60
9
87
44
79
89
19
43
48
26
58
39
70
52
99
86
27
12
65
81
34
49
92
5
30
74
77
42
59
28
69
55
6
78
88
17
8
29
11
41
76
7
25
82
84
98
22
21
62
15
18
97
32
47
80
-1
EOF
